100
120
99
99
96
96
95
93
92
89
89
88
87
85
81
80
80
78
77
77
76
75
74
72
71
71
70
70
69
69
67
67
67
65
65
65
65
64
62
62
59
59
59
58
58
56
56
56
56
55
55
54
52
50
50
49
49
48
47
45
43
43
43
41
40
39
38
38
37
36
36
36
35
35
35
30
30
29
26
26
26
26
24
24
23
23
17
17
17
15
13
13
12
11
11
11
6
5
4
4
3
1
